set VV := 0 1 2 3 4 5 6 7 ;
set VS := 0 1 2 3 4 5 6 7 8 9 10 11 12 13 14 15 16 17 18 19 ;
param cv := 
0 19
1 16
2 18
3 11
4 15
5 16
6 21
7 20
;
param cs := 
0 31
1 38
2 36
3 30
4 40
5 24
6 33
7 21
8 28
9 20
10 24
11 34
12 26
13 31
14 30
15 21
16 25
17 37
18 34
19 27
;
param bv:	 0 1 2 3 4 5 6 7 := 
		0 0 0 20 0 0 0 13 0 
		1 0 0 0 10 0 25 20 0 
		2 0 0 0 0 25 0 0 0 
		3 0 0 0 0 16 0 21 0 
		4 0 0 0 0 0 0 0 25 
		5 0 0 0 0 0 0 0 0 
		6 0 0 0 0 0 0 0 0 
		7 0 0 0 0 0 0 0 0 
;
param bs:	 0 1 2 3 4 5 6 7 8 9 10 11 12 13 14 15 16 17 18 19 := 
		0 0 0 0 0 0 0 0 0 0 0 0 0 0 0 0 0 0 28 0 0 
		1 0 0 0 0 0 0 0 0 37 0 22 0 0 0 0 32 0 0 0 0 
		2 0 0 0 0 0 38 0 0 20 0 0 0 0 0 0 0 0 0 0 0 
		3 0 0 0 0 0 30 0 0 0 0 0 0 29 0 0 0 0 0 0 0 
		4 0 0 0 0 0 0 0 0 0 22 0 0 33 0 0 0 0 0 0 0 
		5 0 0 38 30 0 0 30 0 0 0 0 0 38 0 0 0 0 0 0 0 
		6 0 0 0 0 0 30 0 0 0 0 0 0 0 0 0 0 0 34 0 0 
		7 0 0 0 0 0 0 0 0 27 0 0 24 0 0 0 0 0 24 0 0 
		8 0 37 20 0 0 0 0 27 0 40 0 0 30 34 0 0 0 0 28 0 
		9 0 0 0 0 22 0 0 0 40 0 29 34 0 0 0 0 0 0 0 0 
		10 0 22 0 0 0 0 0 0 0 29 0 0 0 0 0 0 0 0 0 40 
		11 0 0 0 0 0 0 0 24 0 34 0 0 0 0 0 0 0 0 24 0 
		12 0 0 0 29 33 38 0 0 30 0 0 0 0 0 0 35 0 0 0 0 
		13 0 0 0 0 0 0 0 0 34 0 0 0 0 0 28 0 0 0 0 36 
		14 0 0 0 0 0 0 0 0 0 0 0 0 0 28 0 0 0 0 0 25 
		15 0 32 0 0 0 0 0 0 0 0 0 0 35 0 0 0 20 0 0 0 
		16 0 0 0 0 0 0 0 0 0 0 0 0 0 0 0 20 0 21 0 0 
		17 28 0 0 0 0 0 34 24 0 0 0 0 0 0 0 0 21 0 0 0 
		18 0 0 0 0 0 0 0 0 28 0 0 24 0 0 0 0 0 0 0 27 
		19 0 0 0 0 0 0 0 0 0 0 40 0 0 36 25 0 0 0 27 0 
;
